p edge 280 1680
e 1 12
e 1 51
e 1 52
e 1 54
e 1 202
e 1 215
e 2 20
e 2 40
e 2 62
e 2 136
e 2 164
e 2 221
e 3 14
e 3 88
e 3 134
e 3 200
e 3 237
e 3 269
e 4 45
e 4 47
e 4 67
e 4 74
e 4 111
e 4 136
e 5 66
e 5 137
e 5 143
e 5 221
e 5 251
e 5 257
e 6 28
e 6 99
e 6 100
e 6 166
e 6 232
e 6 237
e 7 8
e 7 19
e 7 149
e 7 173
e 7 213
e 7 260
e 8 23
e 8 90
e 8 97
e 8 171
e 8 265
e 8 268
e 9 5
e 9 82
e 9 127
e 9 133
e 9 154
e 9 222
e 10 129
e 10 136
e 10 140
e 10 185
e 10 202
e 10 280
e 11 35
e 11 61
e 11 172
e 11 186
e 11 220
e 11 228
e 12 71
e 12 99
e 12 128
e 12 145
e 12 189
e 12 274
e 13 25
e 13 41
e 13 143
e 13 190
e 13 237
e 13 242
e 14 13
e 14 122
e 14 147
e 14 151
e 14 173
e 14 205
e 15 11
e 15 66
e 15 75
e 15 143
e 15 193
e 15 266
e 16 3
e 16 162
e 16 201
e 16 219
e 16 220
e 16 274
e 17 31
e 17 59
e 17 130
e 17 165
e 17 171
e 17 271
e 18 13
e 18 165
e 18 180
e 18 196
e 18 222
e 18 257
e 19 75
e 19 90
e 19 114
e 19 178
e 19 205
e 19 220
e 20 61
e 20 101
e 20 136
e 20 177
e 20 211
e 20 223
e 21 45
e 21 102
e 21 165
e 21 166
e 21 180
e 21 234
e 22 105
e 22 122
e 22 130
e 22 174
e 22 195
e 22 248
e 23 43
e 23 154
e 23 167
e 23 180
e 23 203
e 23 225
e 24 29
e 24 121
e 24 145
e 24 203
e 24 222
e 24 227
e 25 9
e 25 150
e 25 210
e 25 229
e 25 233
e 25 239
e 26 74
e 26 97
e 26 169
e 26 219
e 26 249
e 26 277
e 27 11
e 27 89
e 27 134
e 27 222
e 27 254
e 27 264
e 28 50
e 28 108
e 28 129
e 28 208
e 28 235
e 28 267
e 29 90
e 29 145
e 29 167
e 29 181
e 29 229
e 29 278
e 30 18
e 30 84
e 30 224
e 30 234
e 30 271
e 30 271
e 31 86
e 31 93
e 31 134
e 31 167
e 31 193
e 31 199
e 32 38
e 32 99
e 32 176
e 32 189
e 32 250
e 32 277
e 33 21
e 33 95
e 33 157
e 33 162
e 33 176
e 33 261
e 34 91
e 34 105
e 34 188
e 34 194
e 34 269
e 34 269
e 35 44
e 35 58
e 35 140
e 35 143
e 35 155
e 35 237
e 36 4
e 36 8
e 36 69
e 36 83
e 36 200
e 36 244
e 37 69
e 37 101
e 37 139
e 37 160
e 37 202
e 37 248
e 38 32
e 38 42
e 38 55
e 38 136
e 38 173
e 38 220
e 39 65
e 39 119
e 39 130
e 39 176
e 39 248
e 39 270
e 40 45
e 40 56
e 40 56
e 40 104
e 40 246
e 40 270
e 41 61
e 41 92
e 41 132
e 41 199
e 41 258
e 41 270
e 42 13
e 42 36
e 42 153
e 42 189
e 42 210
e 42 248
e 43 31
e 43 64
e 43 110
e 43 123
e 43 265
e 43 272
e 44 62
e 44 67
e 44 130
e 44 141
e 44 153
e 44 258
e 45 22
e 45 102
e 45 104
e 45 121
e 45 238
e 45 243
e 46 2
e 46 70
e 46 106
e 46 111
e 46 122
e 46 211
e 47 38
e 47 88
e 47 91
e 47 193
e 47 195
e 47 277
e 48 9
e 48 27
e 48 58
e 48 125
e 48 215
e 48 217
e 49 36
e 49 181
e 49 227
e 49 246
e 49 273
e 49 279
e 50 87
e 50 115
e 50 117
e 50 153
e 50 267
e 50 267
e 51 10
e 51 131
e 51 139
e 51 209
e 51 248
e 51 267
e 52 32
e 52 91
e 52 121
e 52 151
e 52 234
e 52 252
e 53 7
e 53 28
e 53 41
e 53 95
e 53 98
e 53 193
e 54 33
e 54 58
e 54 91
e 54 120
e 54 156
e 54 213
e 55 50
e 55 115
e 55 241
e 55 251
e 55 270
e 55 276
e 56 28
e 56 42
e 56 89
e 56 100
e 56 101
e 56 234
e 57 17
e 57 138
e 57 167
e 57 245
e 57 251
e 57 259
e 58 141
e 58 207
e 58 210
e 58 218
e 58 238
e 58 251
e 59 137
e 59 138
e 59 159
e 59 180
e 59 186
e 59 246
e 60 34
e 60 104
e 60 107
e 60 118
e 60 194
e 60 219
e 61 164
e 61 168
e 61 185
e 61 199
e 61 210
e 61 278
e 62 29
e 62 35
e 62 112
e 62 140
e 62 141
e 62 250
e 63 26
e 63 29
e 63 59
e 63 116
e 63 119
e 63 235
e 64 54
e 64 83
e 64 118
e 64 162
e 64 194
e 64 199
e 65 20
e 65 50
e 65 98
e 65 205
e 65 271
e 65 280
e 66 4
e 66 94
e 66 103
e 66 111
e 66 168
e 66 235
e 67 23
e 67 72
e 67 93
e 67 111
e 67 203
e 67 213
e 68 18
e 68 42
e 68 72
e 68 76
e 68 124
e 68 158
e 69 90
e 69 112
e 69 148
e 69 152
e 69 215
e 69 252
e 70 21
e 70 102
e 70 135
e 70 141
e 70 178
e 70 231
e 71 59
e 71 79
e 71 122
e 71 126
e 71 157
e 71 277
e 72 32
e 72 43
e 72 100
e 72 125
e 72 142
e 72 277
e 73 19
e 73 51
e 73 62
e 73 139
e 73 206
e 73 221
e 74 46
e 74 58
e 74 133
e 74 220
e 74 263
e 74 266
e 75 17
e 75 97
e 75 106
e 75 128
e 75 145
e 75 244
e 76 25
e 76 40
e 76 72
e 76 175
e 76 180
e 76 218
e 77 111
e 77 121
e 77 128
e 77 139
e 77 197
e 77 246
e 78 32
e 78 66
e 78 68
e 78 164
e 78 165
e 78 170
e 79 24
e 79 56
e 79 166
e 79 175
e 79 236
e 79 252
e 80 89
e 80 114
e 80 119
e 80 125
e 80 175
e 80 190
e 81 6
e 81 23
e 81 83
e 81 189
e 81 198
e 81 263
e 82 7
e 82 111
e 82 114
e 82 135
e 82 214
e 82 218
e 83 3
e 83 134
e 83 207
e 83 224
e 83 255
e 83 275
e 84 60
e 84 96
e 84 123
e 84 138
e 84 224
e 84 234
e 85 13
e 85 70
e 85 160
e 85 169
e 85 215
e 85 271
e 86 58
e 86 98
e 86 172
e 86 187
e 86 268
e 86 276
e 87 64
e 87 86
e 87 114
e 87 227
e 87 249
e 87 254
e 88 19
e 88 157
e 88 172
e 88 178
e 88 231
e 88 237
e 89 4
e 89 91
e 89 98
e 89 99
e 89 251
e 89 256
e 90 46
e 90 52
e 90 65
e 90 72
e 90 74
e 90 182
e 91 12
e 91 31
e 91 114
e 91 126
e 91 150
e 91 205
e 92 6
e 92 11
e 92 109
e 92 167
e 92 184
e 92 237
e 93 55
e 93 76
e 93 88
e 93 120
e 93 201
e 93 230
e 94 38
e 94 77
e 94 142
e 94 173
e 94 187
e 94 244
e 95 51
e 95 81
e 95 117
e 95 134
e 95 146
e 95 236
e 96 13
e 96 103
e 96 117
e 96 144
e 96 172
e 96 239
e 97 20
e 97 34
e 97 162
e 97 173
e 97 225
e 97 231
e 98 1
e 98 4
e 98 113
e 98 215
e 98 228
e 98 235
e 99 39
e 99 104
e 99 151
e 99 180
e 99 231
e 99 268
e 100 115
e 100 123
e 100 128
e 100 174
e 100 191
e 100 278
e 101 73
e 101 116
e 101 125
e 101 141
e 101 203
e 101 245
e 102 75
e 102 81
e 102 87
e 102 99
e 102 167
e 102 244
e 103 63
e 103 118
e 103 119
e 103 120
e 103 164
e 103 183
e 104 2
e 104 5
e 104 64
e 104 153
e 104 164
e 104 169
e 105 62
e 105 95
e 105 203
e 105 235
e 105 256
e 105 258
e 106 92
e 106 108
e 106 137
e 106 166
e 106 192
e 106 230
e 107 24
e 107 54
e 107 102
e 107 139
e 107 174
e 107 219
e 108 9
e 108 94
e 108 148
e 108 238
e 108 247
e 108 280
e 109 15
e 109 19
e 109 25
e 109 85
e 109 229
e 109 241
e 110 17
e 110 59
e 110 112
e 110 132
e 110 173
e 110 276
e 111 70
e 111 105
e 111 131
e 111 187
e 111 212
e 111 280
e 112 81
e 112 96
e 112 110
e 112 220
e 112 225
e 112 257
e 113 30
e 113 54
e 113 59
e 113 82
e 113 196
e 113 235
e 114 68
e 114 99
e 114 107
e 114 108
e 114 115
e 114 230
e 115 13
e 115 64
e 115 68
e 115 83
e 115 152
e 115 234
e 116 38
e 116 42
e 116 100
e 116 251
e 116 271
e 116 276
e 117 14
e 117 15
e 117 31
e 117 212
e 117 218
e 117 243
e 118 44
e 118 81
e 118 142
e 118 162
e 118 215
e 118 257
e 119 56
e 119 103
e 119 114
e 119 168
e 119 262
e 119 277
e 120 5
e 120 43
e 120 93
e 120 103
e 120 217
e 120 266
e 121 33
e 121 72
e 121 95
e 121 142
e 121 220
e 121 258
e 122 109
e 122 136
e 122 138
e 122 166
e 122 236
e 122 267
e 123 75
e 123 84
e 123 93
e 123 137
e 123 138
e 123 280
e 124 18
e 124 103
e 124 108
e 124 150
e 124 155
e 124 213
e 125 84
e 125 128
e 125 187
e 125 222
e 125 243
e 125 261
e 126 86
e 126 172
e 126 195
e 126 211
e 126 246
e 126 247
e 127 64
e 127 77
e 127 115
e 127 126
e 127 157
e 127 191
e 128 13
e 128 86
e 128 101
e 128 120
e 128 209
e 128 270
e 129 41
e 129 51
e 129 59
e 129 86
e 129 174
e 129 257
e 130 32
e 130 58
e 130 142
e 130 183
e 130 204
e 130 209
e 131 31
e 131 49
e 131 113
e 131 256
e 131 266
e 131 276
e 132 11
e 132 94
e 132 129
e 132 158
e 132 161
e 132 243
e 133 20
e 133 24
e 133 68
e 133 138
e 133 178
e 133 191
e 134 104
e 134 110
e 134 127
e 134 190
e 134 212
e 134 232
e 135 63
e 135 71
e 135 169
e 135 199
e 135 209
e 135 240
e 136 46
e 136 138
e 136 171
e 136 177
e 136 251
e 136 274
e 137 48
e 137 138
e 137 153
e 137 172
e 137 181
e 137 280
e 138 20
e 138 58
e 138 58
e 138 113
e 138 167
e 138 186
e 139 2
e 139 81
e 139 136
e 139 145
e 139 179
e 139 249
e 140 36
e 140 101
e 140 109
e 140 126
e 140 177
e 140 267
e 141 35
e 141 59
e 141 149
e 141 209
e 141 274
e 141 279
e 142 6
e 142 16
e 142 36
e 142 78
e 142 215
e 142 273
e 143 41
e 143 84
e 143 86
e 143 133
e 143 158
e 143 169
e 144 6
e 144 54
e 144 62
e 144 103
e 144 168
e 144 215
e 145 55
e 145 57
e 145 106
e 145 120
e 145 222
e 145 240
e 146 2
e 146 48
e 146 83
e 146 133
e 146 238
e 146 275
e 147 117
e 147 131
e 147 203
e 147 213
e 147 262
e 147 263
e 148 14
e 148 18
e 148 75
e 148 80
e 148 83
e 148 133
e 149 71
e 149 168
e 149 176
e 149 205
e 149 252
e 149 267
e 150 18
e 150 30
e 150 38
e 150 92
e 150 104
e 150 173
e 151 29
e 151 72
e 151 201
e 151 240
e 151 260
e 151 268
e 152 31
e 152 51
e 152 113
e 152 177
e 152 252
e 152 262
e 153 32
e 153 160
e 153 162
e 153 198
e 153 230
e 153 266
e 154 84
e 154 101
e 154 113
e 154 152
e 154 221
e 154 227
e 155 73
e 155 85
e 155 143
e 155 148
e 155 250
e 155 279
e 156 36
e 156 43
e 156 155
e 156 200
e 156 225
e 156 262
e 157 10
e 157 53
e 157 179
e 157 207
e 157 251
e 157 277
e 158 1
e 158 45
e 158 95
e 158 130
e 158 269
e 158 277
e 159 85
e 159 87
e 159 115
e 159 127
e 159 184
e 159 266
e 160 56
e 160 117
e 160 142
e 160 154
e 160 170
e 160 273
e 161 10
e 161 110
e 161 112
e 161 200
e 161 234
e 161 271
e 162 38
e 162 56
e 162 56
e 162 78
e 162 265
e 162 269
e 163 47
e 163 76
e 163 190
e 163 194
e 163 199
e 163 234
e 164 196
e 164 197
e 164 201
e 164 229
e 164 234
e 164 261
e 165 47
e 165 172
e 165 184
e 165 214
e 165 239
e 165 245
e 166 61
e 166 78
e 166 127
e 166 191
e 166 202
e 166 222
e 167 21
e 167 26
e 167 36
e 167 84
e 167 195
e 167 211
e 168 5
e 168 25
e 168 60
e 168 84
e 168 123
e 168 160
e 169 90
e 169 112
e 169 140
e 169 165
e 169 230
e 169 279
e 170 17
e 170 24
e 170 60
e 170 104
e 170 187
e 170 214
e 171 36
e 171 117
e 171 145
e 171 222
e 171 227
e 171 279
e 172 23
e 172 73
e 172 113
e 172 113
e 172 170
e 172 248
e 173 8
e 173 43
e 173 69
e 173 135
e 173 146
e 173 252
e 174 8
e 174 184
e 174 190
e 174 199
e 174 257
e 174 258
e 175 14
e 175 126
e 175 143
e 175 238
e 175 255
e 175 273
e 176 22
e 176 57
e 176 59
e 176 118
e 176 142
e 176 254
e 177 47
e 177 74
e 177 191
e 177 235
e 177 261
e 177 274
e 178 106
e 178 111
e 178 126
e 178 229
e 178 249
e 178 270
e 179 43
e 179 120
e 179 185
e 179 223
e 179 241
e 179 280
e 180 23
e 180 41
e 180 91
e 180 162
e 180 201
e 180 241
e 181 104
e 181 124
e 181 148
e 181 150
e 181 167
e 181 229
e 182 19
e 182 32
e 182 39
e 182 54
e 182 158
e 182 231
e 183 94
e 183 101
e 183 112
e 183 172
e 183 211
e 183 266
e 184 62
e 184 70
e 184 71
e 184 148
e 184 159
e 184 222
e 185 100
e 185 176
e 185 261
e 185 264
e 185 272
e 185 280
e 186 187
e 186 209
e 186 225
e 186 229
e 186 250
e 186 275
e 187 10
e 187 33
e 187 111
e 187 158
e 187 214
e 187 271
e 188 40
e 188 77
e 188 104
e 188 114
e 188 135
e 188 268
e 189 20
e 189 90
e 189 105
e 189 140
e 189 230
e 189 272
e 190 7
e 190 47
e 190 51
e 190 70
e 190 103
e 190 196
e 191 71
e 191 116
e 191 187
e 191 202
e 191 235
e 191 252
e 192 1
e 192 68
e 192 163
e 192 168
e 192 174
e 192 254
e 193 4
e 193 5
e 193 200
e 193 239
e 193 263
e 193 275
e 194 19
e 194 40
e 194 104
e 194 245
e 194 260
e 194 260
e 195 30
e 195 85
e 195 106
e 195 114
e 195 193
e 195 202
e 196 33
e 196 80
e 196 134
e 196 135
e 196 180
e 196 276
e 197 4
e 197 11
e 197 54
e 197 76
e 197 150
e 197 168
e 198 8
e 198 43
e 198 43
e 198 78
e 198 210
e 198 226
e 199 1
e 199 46
e 199 51
e 199 110
e 199 185
e 199 192
e 200 44
e 200 137
e 200 150
e 200 158
e 200 253
e 200 273
e 201 62
e 201 100
e 201 123
e 201 166
e 201 231
e 201 244
e 202 21
e 202 122
e 202 128
e 202 179
e 202 212
e 202 249
e 203 46
e 203 51
e 203 70
e 203 72
e 203 100
e 203 188
e 204 107
e 204 114
e 204 147
e 204 149
e 204 195
e 204 225
e 205 67
e 205 68
e 205 135
e 205 197
e 205 253
e 205 258
e 206 21
e 206 76
e 206 81
e 206 122
e 206 225
e 206 247
e 207 4
e 207 75
e 207 174
e 207 198
e 207 235
e 207 244
e 208 38
e 208 58
e 208 73
e 208 125
e 208 179
e 208 252
e 209 13
e 209 46
e 209 89
e 209 117
e 209 270
e 209 270
e 210 52
e 210 103
e 210 186
e 210 196
e 210 216
e 210 238
e 211 2
e 211 93
e 211 120
e 211 170
e 211 237
e 211 247
e 212 23
e 212 24
e 212 86
e 212 132
e 212 133
e 212 181
e 213 52
e 213 53
e 213 130
e 213 199
e 213 207
e 213 208
e 214 45
e 214 51
e 214 174
e 214 216
e 214 237
e 214 253
e 215 14
e 215 131
e 215 177
e 215 187
e 215 220
e 215 275
e 216 36
e 216 62
e 216 163
e 216 183
e 216 209
e 216 240
e 217 79
e 217 114
e 217 151
e 217 180
e 217 224
e 217 278
e 218 43
e 218 129
e 218 154
e 218 178
e 218 232
e 218 262
e 219 27
e 219 52
e 219 85
e 219 164
e 219 182
e 219 259
e 220 53
e 220 67
e 220 136
e 220 181
e 220 182
e 220 226
e 221 166
e 221 184
e 221 195
e 221 197
e 221 227
e 221 239
e 222 20
e 222 167
e 222 233
e 222 233
e 222 246
e 222 254
e 223 142
e 223 164
e 223 186
e 223 192
e 223 214
e 223 244
e 224 57
e 224 60
e 224 95
e 224 143
e 224 185
e 224 228
e 225 51
e 225 108
e 225 135
e 225 214
e 225 237
e 225 250
e 226 11
e 226 80
e 226 112
e 226 133
e 226 221
e 226 238
e 227 159
e 227 200
e 227 231
e 227 237
e 227 273
e 227 274
e 228 56
e 228 68
e 228 116
e 228 198
e 228 222
e 228 239
e 229 120
e 229 131
e 229 145
e 229 221
e 229 257
e 229 258
e 230 50
e 230 54
e 230 84
e 230 93
e 230 162
e 230 201
e 231 56
e 231 84
e 231 100
e 231 201
e 231 208
e 231 257
e 232 2
e 232 7
e 232 125
e 232 185
e 232 194
e 232 204
e 233 12
e 233 32
e 233 150
e 233 211
e 233 220
e 233 270
e 234 25
e 234 46
e 234 147
e 234 253
e 234 263
e 234 266
e 235 88
e 235 112
e 235 205
e 235 240
e 235 263
e 235 268
e 236 52
e 236 122
e 236 132
e 236 160
e 236 214
e 236 233
e 237 28
e 237 135
e 237 152
e 237 180
e 237 209
e 237 264
e 238 49
e 238 62
e 238 68
e 238 80
e 238 84
e 238 91
e 239 69
e 239 79
e 239 89
e 239 124
e 239 155
e 239 161
e 240 33
e 240 161
e 240 179
e 240 179
e 240 207
e 240 219
e 241 16
e 241 37
e 241 51
e 241 64
e 241 139
e 241 226
e 242 28
e 242 67
e 242 99
e 242 106
e 242 183
e 242 220
e 243 7
e 243 78
e 243 134
e 243 153
e 243 179
e 243 264
e 244 7
e 244 33
e 244 37
e 244 68
e 244 235
e 244 269
e 245 27
e 245 34
e 245 113
e 245 160
e 245 181
e 245 238
e 246 17
e 246 84
e 246 112
e 246 118
e 246 196
e 246 213
e 247 15
e 247 155
e 247 182
e 247 250
e 247 259
e 247 268
e 248 6
e 248 60
e 248 65
e 248 67
e 248 84
e 248 95
e 249 36
e 249 122
e 249 158
e 249 189
e 249 194
e 249 244
e 250 41
e 250 131
e 250 182
e 250 218
e 250 226
e 250 255
e 251 58
e 251 90
e 251 109
e 251 110
e 251 249
e 251 261
e 252 80
e 252 80
e 252 154
e 252 195
e 252 237
e 252 275
e 253 26
e 253 96
e 253 126
e 253 147
e 253 156
e 253 251
e 254 27
e 254 90
e 254 110
e 254 123
e 254 213
e 254 217
e 255 116
e 255 149
e 255 153
e 255 170
e 255 236
e 255 247
e 256 29
e 256 128
e 256 137
e 256 154
e 256 254
e 256 275
e 257 67
e 257 70
e 257 86
e 257 183
e 257 227
e 257 261
e 258 78
e 258 149
e 258 164
e 258 177
e 258 221
e 258 276
e 259 16
e 259 103
e 259 121
e 259 141
e 259 145
e 259 260
e 260 20
e 260 39
e 260 65
e 260 75
e 260 206
e 260 267
e 261 15
e 261 63
e 261 134
e 261 189
e 261 204
e 261 227
e 262 7
e 262 49
e 262 135
e 262 144
e 262 153
e 262 243
e 263 37
e 263 88
e 263 115
e 263 183
e 263 251
e 263 270
e 264 11
e 264 25
e 264 56
e 264 103
e 264 205
e 264 257
e 265 26
e 265 42
e 265 77
e 265 92
e 265 104
e 265 259
e 266 9
e 266 28
e 266 102
e 266 123
e 266 142
e 266 198
e 267 9
e 267 10
e 267 142
e 267 161
e 267 200
e 267 221
e 268 85
e 268 96
e 268 109
e 268 134
e 268 149
e 268 236
e 269 3
e 269 14
e 269 44
e 269 117
e 269 183
e 269 231
e 270 116
e 270 172
e 270 188
e 270 221
e 270 248
e 270 267
e 271 13
e 271 34
e 271 54
e 271 82
e 271 195
e 271 211
e 272 52
e 272 54
e 272 54
e 272 60
e 272 81
e 272 175
e 273 55
e 273 63
e 273 125
e 273 197
e 273 204
e 273 276
e 274 18
e 274 72
e 274 74
e 274 212
e 274 232
e 274 259
e 275 44
e 275 50
e 275 129
e 275 162
e 275 214
e 275 226
e 276 20
e 276 87
e 276 135
e 276 136
e 276 225
e 276 258
e 277 28
e 277 50
e 277 72
e 277 147
e 277 193
e 277 256
e 278 24
e 278 61
e 278 108
e 278 178
e 278 248
e 278 252
e 279 34
e 279 77
e 279 170
e 279 181
e 279 202
e 279 240
e 280 35
e 280 52
e 280 132
e 280 164
e 280 259
e 280 277
